# Solution for model GasLib-40
# Objective value = 1.0543249681344395e+01
loadshed[innode_1] 0
loadshed[innode_2] 0
loadshed[innode_3] 0
loadshed[innode_4] 0
loadshed[innode_5] 0
loadshed[innode_6] 0
loadshed[innode_7] 0
loadshed[innode_8] 0
loadshed[source_1] -2.3017871896039721e-01
loadshed[source_2] -5.8501651712181468e-02
loadshed[source_3] 3.5537169305828376e-01
loadshed[sink_1] 0
loadshed[sink_2] 0
loadshed[sink_3] 0
loadshed[sink_4] 0
loadshed[sink_5] 0
loadshed[sink_6] 0
loadshed[sink_7] 0
loadshed[sink_8] 0
loadshed[sink_9] 0
loadshed[sink_10] 0
loadshed[sink_11] 0
loadshed[sink_12] 6.4468278306309679e-01
loadshed[sink_13] 0
loadshed[sink_14] 0
loadshed[sink_15] 0
loadshed[sink_16] 0
loadshed[sink_17] 0
loadshed[sink_18] 0
loadshed[sink_19] 0
loadshed[sink_20] 0
loadshed[sink_21] 0
loadshed[sink_22] 0
loadshed[sink_23] 0
loadshed[sink_24] 0
loadshed[sink_25] 0
loadshed[sink_26] 0
loadshed[sink_27] 0
loadshed[sink_28] 0
loadshed[sink_29] 0
flow[source_1,sink_3] 194.47929539676
flow[innode_1,sink_16] 1.6354166666666970e+01
flow[innode_6,sink_13] 1.2569698558845630e+01
flow[sink_13,sink_14] -3.7844681078210378e+00
flow[sink_14,sink_10] -2.0138634774487855e+01
flow[sink_25,sink_26] 1.6310147127722655e+02
flow[sink_26,sink_9] 1.3039313794389076e+02
flow[sink_9,sink_18] 1.1403897127722409e+02
flow[sink_26,sink_4] 16.3541666666693
flow[sink_4,sink_20] 0
flow[sink_18,sink_6] 9.7684804610557421e+01
flow[sink_25,innode_8] -1.6177096206342367e+02
flow[sink_6,sink_7] 4.8622304610556967e+01
flow[sink_6,sink_22] 3.2708333333333641e+01
flow[sink_7,sink_24] 3.8519250318655608e+01
flow[sink_22,sink_1] 1.6354166666666970e+01
flow[sink_24,sink_21] 2.2165083651988940e+01
flow[sink_21,sink_12] 5.8109169853222715e+00
flow[sink_7,sink_5] -6.2511123747649435e+00
flow[sink_5,sink_17] -2.2605279041431572e+01
flow[sink_17,sink_4] 0
flow[sink_17,sink_8] -3.8959445708098244e+01
flow[sink_3,sink_23] 16.3541666666697
flow[sink_8,sink_20] -5.5313612374764915e+01
flow[sink_25,sink_20] 7.1667779041431572e+01
flow[sink_25,sink_15] -1.0192215348074745e+02
flow[sink_15,sink_29] -6.5577895252302255e+01
flow[sink_29,sink_28] 1.6354166666667879e+01
flow[sink_29,sink_2] 6.9052591561778513e+01
flow[sink_2,sink_15] 5.2698424895111884e+01
flow[sink_29,innode_7] -1.6733882014741533e+02
flow[innode_4,sink_19] 1.0190946810783451e+02
flow[sink_19,innode_3] 3.3769861672119127e+01
flow[innode_4,innode_5] 0
flow[sink_27,innode_5] 0
flow[sink_27,sink_19] -1.6354166666679703e+01
flow[sink_10,sink_11] 3.2708333333333641e+01
flow[sink_10,innode_2] -3.5431273102369005e+01
flow[sink_10,innode_3] -3.3769861672119127e+01
flow[innode_6,sink_25] -1.2569698558845630e+01
flow[sink_11,innode_1] 1.6354166666666970e+01
flow[sink_19,innode_2] 3.5431273102369005e+01
flow[source_3,innode_4] 1.0190946810783451e+02
flow[source_2,innode_7] 1.6733882014741533e+02
flow[sink_3,innode_8] 1.6177096206342367e+02
pressure[innode_1] 7.4860247353132578e+01
pressure[innode_2] 7.6884637780146917e+01
pressure[innode_3] 76.809858245496
pressure[innode_4] 81.01325
pressure[innode_5] 81.01325
pressure[innode_6] 74.1219415330051
pressure[innode_7] 81.01325
pressure[innode_8] 8.0363180009272327e+01
pressure[source_1] 81.01325
pressure[source_2] 81.01325
pressure[source_3] 81.01325
pressure[sink_1] 4.5994612238991159e+01
pressure[sink_2] 7.4788412035295252e+01
pressure[sink_3] 8.0363180009272327e+01
pressure[sink_4] 6.0555489618659138e+01
pressure[sink_5] 5.0028010258002219e+01
pressure[sink_6] 4.8095689849378530e+01
pressure[sink_7] 4.7428221505108453e+01
pressure[sink_8] 5.3181981251656481e+01
pressure[sink_9] 5.4830434853765439e+01
pressure[sink_10] 7.5011948660736124e+01
pressure[sink_11] 7.4860247353132578e+01
pressure[sink_12] 1.0132500000000007e+00
pressure[sink_13] 7.4052646885441945e+01
pressure[sink_14] 74.0594195134863
pressure[sink_15] 74.6163632925585
pressure[sink_16] 73.8385975183149
pressure[sink_17] 5.1711940150938872e+01
pressure[sink_18] 5.0704164978365746e+01
pressure[sink_19] 7.6884637780146917e+01
pressure[sink_20] 5.7036562143854475e+01
pressure[sink_21] 3.0810922961030780e+00
pressure[sink_22] 4.7058381381346166e+01
pressure[sink_23] 8.0198461997612540e+01
pressure[sink_24] 3.3265500037300759e+00
pressure[sink_25] 74.1219415330051
pressure[sink_26] 6.2634800695132334e+01
pressure[sink_27] 7.6533507783003415e+01
pressure[sink_28] 7.6242309836514224e+01
pressure[sink_29] 76.5375921101314
interdiction[source_1,sink_3] 0
interdiction[innode_1,sink_16] 0
interdiction[innode_6,sink_13] 0
interdiction[sink_13,sink_14] 0
interdiction[sink_14,sink_10] 0
interdiction[sink_25,sink_26] 0
interdiction[sink_26,sink_9] 0
interdiction[sink_9,sink_18] 0
interdiction[sink_26,sink_4] 0
interdiction[sink_4,sink_20] 1
interdiction[sink_18,sink_6] 0
interdiction[sink_25,innode_8] 0
interdiction[sink_6,sink_7] 0
interdiction[sink_6,sink_22] 0
interdiction[sink_7,sink_24] 0
interdiction[sink_22,sink_1] 0
interdiction[sink_24,sink_21] 0
interdiction[sink_21,sink_12] 0
interdiction[sink_7,sink_5] 0
interdiction[sink_5,sink_17] 0
interdiction[sink_17,sink_4] 1
interdiction[sink_17,sink_8] 0
interdiction[sink_3,sink_23] 0
interdiction[sink_8,sink_20] 0
interdiction[sink_25,sink_20] 0
interdiction[sink_25,sink_15] 0
interdiction[sink_15,sink_29] 0
interdiction[sink_29,sink_28] 0
interdiction[sink_29,sink_2] 0
interdiction[sink_2,sink_15] 0
interdiction[sink_29,innode_7] 0
interdiction[innode_4,sink_19] 0
interdiction[sink_19,innode_3] 0
interdiction[innode_4,innode_5] 0
interdiction[sink_27,innode_5] 1
interdiction[sink_27,sink_19] 0
interdiction[sink_10,sink_11] 0
interdiction[sink_10,innode_2] 0
interdiction[sink_10,innode_3] 0
interdiction[innode_6,sink_25] 0
interdiction[sink_11,innode_1] 0
interdiction[sink_19,innode_2] 0
interdiction[source_3,innode_4] 0
interdiction[source_2,innode_7] 0
interdiction[sink_3,innode_8] 0
WCcheckFlow[source_1,sink_3] 39
WCcheckFlow[innode_1,sink_16] 1
WCcheckFlow[innode_6,sink_13] 13
WCcheckFlow[sink_13,sink_14] 12
WCcheckFlow[sink_14,sink_10] 11
WCcheckFlow[sink_25,sink_26] 15
WCcheckFlow[sink_26,sink_9] 13
WCcheckFlow[sink_9,sink_18] 12
WCcheckFlow[sink_26,sink_4] 1
WCcheckFlow[sink_4,sink_20] 0
WCcheckFlow[sink_18,sink_6] 11
WCcheckFlow[sink_25,innode_8] -36
WCcheckFlow[sink_6,sink_7] 8
WCcheckFlow[sink_6,sink_22] 2
WCcheckFlow[sink_7,sink_24] 3
WCcheckFlow[sink_22,sink_1] 1
WCcheckFlow[sink_24,sink_21] 2
WCcheckFlow[sink_21,sink_12] 1
WCcheckFlow[sink_7,sink_5] 4
WCcheckFlow[sink_5,sink_17] 3
WCcheckFlow[sink_17,sink_4] 0
WCcheckFlow[sink_17,sink_8] 2
WCcheckFlow[sink_3,sink_23] 1
WCcheckFlow[sink_8,sink_20] 1
WCcheckFlow[sink_25,sink_20] 0
WCcheckFlow[sink_25,sink_15] 6
WCcheckFlow[sink_15,sink_29] 5
WCcheckFlow[sink_29,sink_28] 1
WCcheckFlow[sink_29,sink_2] 1
WCcheckFlow[sink_2,sink_15] 0
WCcheckFlow[sink_29,innode_7] 2
WCcheckFlow[innode_4,sink_19] -3
WCcheckFlow[sink_19,innode_3] -5
WCcheckFlow[innode_4,innode_5] 1
WCcheckFlow[sink_27,innode_5] 0
WCcheckFlow[sink_27,sink_19] -1
WCcheckFlow[sink_10,sink_11] 3
WCcheckFlow[sink_10,innode_2] 1
WCcheckFlow[sink_10,innode_3] 6
WCcheckFlow[innode_6,sink_25] -14
WCcheckFlow[sink_11,innode_1] 2
WCcheckFlow[sink_19,innode_2] 0
WCcheckFlow[source_3,innode_4] -1
WCcheckFlow[source_2,innode_7] -1
WCcheckFlow[sink_3,innode_8] 37
